1167.64 0
0 96 105 94 97 115 52 54 58 56 55 53 75 72 107 120 0
0 92 91 90 18 6 5 10 9 13 14 15 11 4 3 1 2 0
0 86 21 29 37 41 44 46 47 48 62 64 66 63 60 98 110 116 101 0
0 111 85 17 49 40 8 20 23 26 77 80 45 51 50 84 102 0
0 119 81 89 118 108 16 24 22 28 25 19 93 12 7 83 117 112 0
0 82 88 106 104 103 67 69 70 74 78 79 39 31 32 35 36 34 33 30 27 109 114 0
0 87 95 99 100 68 61 65 59 43 42 113 57 76 73 71 38 0